Route #1: 26 12 40
Route #2: 32 44 3
Route #3: 17 51 6
Route #4: 2 48 30
Route #5: 15 20 37 5
Route #6: 45 29 27 52
Route #7: 33 22 28
Route #8: 42 41 43 1
Route #9: 21 36 47
Route #10: 38 11
Route #11: 14 53 7
Route #12: 16 23 49 24 18
Route #13: 50 25 9
Route #14: 39 31 10
Route #15: 13 54 19 35 8
Route #16: 46 34
Route #17: 4
Cost 969